
Gurobi 12.0.3 (mac64[arm], gurobi_cl) logging started Mon Aug  4 16:39:00 2025

Set parameter Username
Set parameter LicenseID to value 2693565
Set parameter LogFile to value "gurobi.log"
Using license file /Users/mehdi/gurobi.lic
Academic license - for non-commercial use only - expires 2026-08-04
